c instance by G2
c solution = 0100011100000011111011010
c Known solution cost is 1325 
p cnf 25 30
w 41 41 2 89 64 83 27 96 54 43 67 83 43 1 44 73 18 74 14 81 32 97 28 66 64
5 -11 23 0
-7 9 16 0
9 -11 3 0
-19 -22 8 0
-17 7 -18 0
-8 -21 18 0
3 -20 -6 0
-11 -3 2 0
-17 -23 25 0
11 20 2 0
-17 -18 -9 0
-12 -2 -7 0
-2 -16 6 0
-10 -7 -2 0
-5 -16 3 0
11 -1 -7 0
17 16 -14 0
-13 11 -6 0
-2 17 -22 0
-4 20 -15 0
22 9 -19 0
20 -25 13 0
4 -14 -2 0
-19 13 15 0
21 -7 -6 0
14 21 3 0
-2 -7 24 0
19 -16 9 0
-8 -6 -12 0
-3 -7 10 0
